p cnf 36 109
-1 2 -3 0
1 -2 -3 0
-1 -2 3 0
1 2 3 0
5 -4 0
5 2 0
4 -2 -5 0
6 3 0
6 -5 0
-3 5 -6 0
7 6 0
7 6 0
-6 -7 0
-8 7 0
-8 3 0
-7 -3 8 0
10 9 0
10 5 0
-9 -5 -10 0
12 6 0
12 -11 0
-6 11 -12 0
-10 12 -13 0
10 -12 -13 0
-10 -12 13 0
10 12 13 0
15 -6 0
15 -14 0
6 14 -15 0
13 15 -16 0
-13 -15 -16 0
13 -15 16 0
-13 15 16 0
8 16 -17 0
-8 -16 -17 0
8 -16 17 0
-8 16 17 0
-21 19 0
-21 -20 0
-19 20 21 0
22 18 0
22 -21 0
-18 21 -22 0
23 -2 0
23 7 0
2 -7 -23 0
24 -4 0
24 19 0
4 -19 -24 0
25 -23 0
25 -24 0
23 24 -25 0
26 22 0
26 25 0
-22 -25 -26 0
-28 27 0
-28 -2 0
-27 2 28 0
29 2 0
29 -18 0
-2 18 -29 0
30 -4 0
30 29 0
4 -29 -30 0
31 2 0
31 -4 0
-2 4 -31 0
-32 31 0
-32 -9 0
-31 9 32 0
-33 30 0
-33 32 0
-30 -32 33 0
34 -28 0
34 33 0
28 -33 -34 0
35 -26 0
35 34 0
26 -34 -35 0
-17 -35 -36 0
17 35 -36 0
-17 35 36 0
17 -35 36 0
-9 -3 26 -31 0
18 -16 26 0
8 27 -12 -36 -26 0
9 -25 -5 27 19 -2 0
20 -25 29 18 14 -33 0
-36 -12 -33 30 29 0
-22 28 -1 18 5 0
-28 33 8 30 0
30 -10 -21 -5 -6 0
-28 -18 34 -4 -15 -10 0
-13 8 28 34 0
-7 15 3 -10 0
-14 17 -36 -20 23 0
6 -18 -21 -29 0
-25 20 -31 -21 0
13 6 -25 -17 0
-8 -5 -27 0
30 9 13 3 0
34 21 29 -19 -17 -28 0
1 10 -16 9 0
-20 16 7 28 0
-9 2 0
35 -16 -36 3 0
6 32 -26 11 -7 0
-35 33 0
36 0
